 O  C  O 
 1.0000000000000000
    12.2215064311350812    0.0000000000000000    0.0000000000000000
     0.0000000000000000   12.2215064311350812    0.0000000000000000
     0.0000000000000000    0.0000000000000000   12.2215064311350812
 O   C   O  
   1   1   1
Cartesian
  5.3126318114033406  6.1107113555603929  7.2537301470396542
  6.1110433158204023  6.1107345194310980  8.1103956914746771
  6.9085951030230905  6.1107343951295041  8.9681302335848070
