 O 
 1.0000000000000000
    10.0000205011880752    0.0000000000000000    0.0000000000000000
     0.0000000000000000   10.0000205011880752    0.0000000000000000
     0.0000000000000000    0.0000000000000000   10.0000205011880752
 O  
   2
Cartesian
  4.9999994466680473  4.9999999498898200  5.6061277089207300
  4.9999998874316054  4.9999993842098327  4.3938769169510277
