Pt  O 
 1.0000000000000000
     2.7718566877939281    0.0000000000000000    0.0000000000000000
     1.3859309897830168    2.4005012885086470    0.0000000000000000
     0.0000000000000000    0.0000000000000000   18.5264412241190222
 Pt  O  
   3   1
Selective dynamics
Cartesian
  1.3859309897830168  0.8001688600935842  7.0000090590595470   F   F   F
  2.7718566877939281  1.6003324284150626  9.2631941531989828   F   F   F
  0.0025772027795674  0.0014892222303217 11.4361579840014933   T   T   T
  1.3855828698936903  0.7999690152618826 12.6835013402509595   T   T   T
