Pt  O 
 1.0000000000000000
     2.7718566877939281    0.0000000000000000    0.0000000000000000
     1.3859309897830168    2.4005012885086470    0.0000000000000000
     0.0000000000000000    0.0000000000000000   18.5264412241190222
 Pt  O  
   3   1
Selective dynamics
Cartesian
  1.3859309897830168  0.8001688600935842  7.0000090590595470   F   F   F
  2.7718566877939281  1.6003324284150626  9.2631941531989828   F   F   F
  0.1437713277498096  0.0830587390423243 11.5649910887322864   T   T   T
  2.7280844271171678  1.5753301890778320 12.8550942725757764   T   T   T
