Pt 
 1.0000000000000000
     2.7718566877939281    0.0000000000000000    0.0000000000000000
     1.3859309897830168    2.4005012885086470    0.0000000000000000
     0.0000000000000000    0.0000000000000000   18.5264412241190222
 Pt 
   3
Selective dynamics
Cartesian
  1.3859309897830168  0.8001688600935842  7.0000090590595470   F   F   F
  2.7718566877939281  1.6003324284150626  9.2631941531989828   F   F   F
  4.0978877004906469  2.3659166982615671 11.5405170459967916   T   T   T
