Si Al  O Ca  O  C  O 
 1.0000000000000000
    12.2215064311350812    0.0000000000000000    0.0000000000000000
     0.0000000000000000   12.2215064311350812    0.0000000000000000
     0.0000000000000000    0.0000000000000000   12.2215064311350812
 Si  Al  O   Ca  O   C   O  
  20   4  48   2   1   1   1
Selective dynamics
Cartesian
  0.0000000000000000  2.2658680225969943  4.4926245575612151   F   F   F
  4.4926245575612151  0.0000000000000000  2.2658680225969943   F   F   F
  0.0000000000000000  9.9556225332217707  7.7288977488901818   F   F   F
  7.7288977488901818  2.2658680225969943  0.0000000000000000   F   F   F
  7.7288977488901818  0.0000000000000000  9.9556225332217707   F   F   F
  0.0000000000000000  7.7288977488901818  2.2658680225969943   F   F   F
  4.4926245575612151  9.9556225332217707  0.0000000000000000   F   F   F
  9.9556225332217707  7.7288977488901818  0.0000000000000000   F   F   F
  2.2658680225969943  0.0000000000000000  7.7288977488901818   F   F   F
  0.0000000000000000  4.4926245575612151  9.9556225332217707   F   F   F
  0.0000000000000000  4.5683974423418521  2.1974242421826671   F   F   F
  4.5683974423418521  2.1974242421826671  0.0000000000000000   F   F   F
  0.0000000000000000  7.6531195723374399 10.0240980642687294   F   F   F
  7.6531195723374399  0.0000000000000000  2.1974242421826671   F   F   F
 10.0240980642687294  0.0000000000000000  7.6531195723374399   F   F   F
  0.0000000000000000 10.0240980642687294  4.5683974423418521   F   F   F
  2.1974242421826671  7.6531195723374399  0.0000000000000000   F   F   F
  7.6531195723374399 10.0240980642687294  0.0000000000000000   F   F   F
  4.5683974423418521  0.0000000000000000 10.0240980642687294   F   F   F
  0.0000000000000000  2.1974242421826671  7.6531195723374399   F   F   F
  2.2658680225969943  4.4926245575612151  0.0000000000000000   F   F   F
  9.9556225332217707  0.0000000000000000  4.4926245575612151   F   F   F
  2.1974242421826671  0.0000000000000000  4.5683974423418521   F   F   F
 10.0240980642687294  4.5683974423418521  0.0000000000000000   F   F   F
  0.0000000000000000  2.6300689459954527  6.0350014978753270   F   F   F
  6.0350014978753270  0.0000000000000000  2.6300689459954527   F   F   F
  2.6300689459954527  6.0350014978753270  0.0000000000000000   F   F   F
  0.0000000000000000  9.5914427769117339  6.1865049332597541   F   F   F
  9.5914427769117339  0.0000000000000000  6.0350014978753270   F   F   F
  6.1865049332597541  2.6300689459954527  0.0000000000000000   F   F   F
  6.1865049332597541  0.0000000000000000  9.5914427769117339   F   F   F
  0.0000000000000000  6.1865049332597541  2.6300689459954527   F   F   F
  6.0350014978753270  9.5914427769117339  0.0000000000000000   F   F   F
  9.5914427769117339  6.1865049332597541  0.0000000000000000   F   F   F
  2.6300689459954527  0.0000000000000000  6.1865049332597541   F   F   F
  0.0000000000000000  6.0350014978753270  9.5914427769117339   F   F   F
  0.0000000000000000  3.4757946721464776  3.5711206548574483   F   F   F
  3.5711206548574483  0.0000000000000000  3.4757946721464776   F   F   F
  3.4757946721464776  3.5711206548574483  0.0000000000000000   F   F   F
  0.0000000000000000  8.7457117589886035  8.6503540256449991   F   F   F
  8.7457117589886035  0.0000000000000000  3.5711206548574483   F   F   F
  8.6503540256449991  3.4757946721464776  0.0000000000000000   F   F   F
  8.6503540256449991  0.0000000000000000  8.7457117589886035   F   F   F
  0.0000000000000000  8.6503540256449991  3.4757946721464776   F   F   F
  3.5711206548574483  8.7457117589886035  0.0000000000000000   F   F   F
  8.7457117589886035  8.6503540256449991  0.0000000000000000   F   F   F
  3.4757946721464776  0.0000000000000000  8.6503540256449991   F   F   F
  0.0000000000000000  3.5711206548574483  8.7457117589886035   F   F   F
  1.3077027227453644  1.4201370046738637  4.0990913413812038   F   F   F
  4.0990913413812038  1.3077027227453644  1.4201370046738637   F   F   F
  1.4201370046738637  4.0990913413812038  1.3077027227453644   F   F   F
 10.8013535511448993 10.9138037083897164  8.1223939226654540   F   F   F
 10.9138037083897164  8.1223939226654540 10.8013535511448993   F   F   F
  8.1223939226654540 10.8013535511448993 10.9138037083897164   F   F   F
  1.3077027227453644 10.8013535511448993  8.1223939226654540   F   F   F
  4.0990913413812038 10.9138037083897164 10.8013535511448993   F   F   F
  1.4201370046738637  8.1223939226654540 10.9138037083897164   F   F   F
 10.8013535511448993  1.3077027227453644  4.0990913413812038   F   F   F
 10.9138037083897164  4.0990913413812038  1.4201370046738637   F   F   F
  8.1223939226654540  1.4201370046738637  1.3077027227453644   F   F   F
 10.9138037083897164  1.4201370046738637  8.1223939226654540   F   F   F
  8.1223939226654540  1.3077027227453644 10.8013535511448993   F   F   F
 10.8013535511448993  4.0990913413812038 10.9138037083897164   F   F   F
  1.4201370046738637 10.9138037083897164  4.0990913413812038   F   F   F
  1.3077027227453644  8.1223939226654540  1.4201370046738637   F   F   F
  4.0990913413812038 10.8013535511448993  1.3077027227453644   F   F   F
 10.9138037083897164 10.8013535511448993  4.0990913413812038   F   F   F
  8.1223939226654540 10.9138037083897164  1.4201370046738637   F   F   F
 10.8013535511448993  8.1223939226654540  1.3077027227453644   F   F   F
  1.4201370046738637  1.3077027227453644  8.1223939226654540   F   F   F
  1.3077027227453644  4.0990913413812038 10.8013535511448993   F   F   F
  4.0990913413812038  1.4201370046738637 10.9138037083897164   F   F   F
  9.8370339203344130  2.4680084252602761  2.3349891498408435   F   F   F
  2.5460091460973864  2.3919921189627802  2.5230058127541759   F   F   F
  5.0622651714769580  3.7155895654717788  2.5254258930178817   T   T   T
  6.1306590170787949  3.5525254850260417  2.9594425636175106   T   T   T
  7.2038932800845741  3.3636804777794813  3.3631014477411054   T   T   T
