Si Al  O Ca  O  C  O 
 1.0000000000000000
    12.2215003966999998    0.0000000000000000    0.0000000000000000
     0.0000000000000000   12.2215003966999998    0.0000000000000000
     0.0000000000000000    0.0000000000000000   12.2215003966999998
 Si  Al  O   Ca  O   C   O  
  20   4  48   2   1   1   1
Selective dynamics
Cartesian
  0.0000000000000000  2.2658659999999999  4.4926230000000000   F   F   F
  4.4926230000000000  0.0000000000000000  2.2658659999999999   F   F   F
  0.0000000000000000  9.9556339999999999  7.7288769999999998   F   F   F
  7.7288769999999998  2.2658659999999999  0.0000000000000000   F   F   F
  7.7288769999999998  0.0000000000000000  9.9556339999999999   F   F   F
  0.0000000000000000  7.7288769999999998  2.2658659999999999   F   F   F
  4.4926230000000000  9.9556339999999999  0.0000000000000000   F   F   F
  9.9556339999999999  7.7288769999999998  0.0000000000000000   F   F   F
  2.2658659999999999  0.0000000000000000  7.7288769999999998   F   F   F
  0.0000000000000000  4.4926230000000000  9.9556339999999999   F   F   F
  0.0000000000000000  4.5683970000000000  2.1974260000000001   F   F   F
  4.5683970000000000  2.1974260000000001  0.0000000000000000   F   F   F
  0.0000000000000000  7.6531029999999998 10.0240740000000006   F   F   F
  7.6531029999999998  0.0000000000000000  2.1974260000000001   F   F   F
 10.0240740000000006  0.0000000000000000  7.6531029999999998   F   F   F
  0.0000000000000000 10.0240740000000006  4.5683970000000000   F   F   F
  2.1974260000000001  7.6531029999999998  0.0000000000000000   F   F   F
  7.6531029999999998 10.0240740000000006  0.0000000000000000   F   F   F
  4.5683970000000000  0.0000000000000000 10.0240740000000006   F   F   F
  0.0000000000000000  2.1974260000000001  7.6531029999999998   F   F   F
  2.2658659999999999  4.4926230000000000  0.0000000000000000   F   F   F
  9.9556339999999999  0.0000000000000000  4.4926230000000000   F   F   F
  2.1974260000000001  0.0000000000000000  4.5683970000000000   F   F   F
 10.0240740000000006  4.5683970000000000  0.0000000000000000   F   F   F
  0.0000000000000000  2.6300669999999999  6.0349769999999996   F   F   F
  6.0349769999999996  0.0000000000000000  2.6300669999999999   F   F   F
  2.6300669999999999  6.0349769999999996  0.0000000000000000   F   F   F
  0.0000000000000000  9.5914330000000003  6.1865230000000002   F   F   F
  9.5914330000000003  0.0000000000000000  6.0349769999999996   F   F   F
  6.1865230000000002  2.6300669999999999  0.0000000000000000   F   F   F
  6.1865230000000002  0.0000000000000000  9.5914330000000003   F   F   F
  0.0000000000000000  6.1865230000000002  2.6300669999999999   F   F   F
  6.0349769999999996  9.5914330000000003  0.0000000000000000   F   F   F
  9.5914330000000003  6.1865230000000002  0.0000000000000000   F   F   F
  2.6300669999999999  0.0000000000000000  6.1865230000000002   F   F   F
  0.0000000000000000  6.0349769999999996  9.5914330000000003   F   F   F
  0.0000000000000000  3.4757950000000002  3.5711219999999999   F   F   F
  3.5711219999999999  0.0000000000000000  3.4757950000000002   F   F   F
  3.4757950000000002  3.5711219999999999  0.0000000000000000   F   F   F
  0.0000000000000000  8.7457060000000002  8.6503779999999999   F   F   F
  8.7457060000000002  0.0000000000000000  3.5711219999999999   F   F   F
  8.6503779999999999  3.4757950000000002  0.0000000000000000   F   F   F
  8.6503779999999999  0.0000000000000000  8.7457060000000002   F   F   F
  0.0000000000000000  8.6503779999999999  3.4757950000000002   F   F   F
  3.5711219999999999  8.7457060000000002  0.0000000000000000   F   F   F
  8.7457060000000002  8.6503779999999999  0.0000000000000000   F   F   F
  3.4757950000000002  0.0000000000000000  8.6503779999999999   F   F   F
  0.0000000000000000  3.5711219999999999  8.7457060000000002   F   F   F
  1.3077010000000000  1.4201379999999999  4.0990909999999996   F   F   F
  4.0990909999999996  1.3077010000000000  1.4201379999999999   F   F   F
  1.4201379999999999  4.0990909999999996  1.3077010000000000   F   F   F
 10.8013619999999992 10.9138000000000002  8.1224089999999993   F   F   F
 10.9138000000000002  8.1224089999999993 10.8013619999999992   F   F   F
  8.1224089999999993 10.8013619999999992 10.9138000000000002   F   F   F
  1.3077010000000000 10.8013619999999992  8.1224089999999993   F   F   F
  4.0990909999999996 10.9138000000000002 10.8013619999999992   F   F   F
  1.4201379999999999  8.1224089999999993 10.9138000000000002   F   F   F
 10.8013619999999992  1.3077010000000000  4.0990909999999996   F   F   F
 10.9138000000000002  4.0990909999999996  1.4201379999999999   F   F   F
  8.1224089999999993  1.4201379999999999  1.3077010000000000   F   F   F
 10.9138000000000002  1.4201379999999999  8.1224089999999993   F   F   F
  8.1224089999999993  1.3077010000000000 10.8013619999999992   F   F   F
 10.8013619999999992  4.0990909999999996 10.9138000000000002   F   F   F
  1.4201379999999999 10.9138000000000002  4.0990909999999996   F   F   F
  1.3077010000000000  8.1224089999999993  1.4201379999999999   F   F   F
  4.0990909999999996 10.8013619999999992  1.3077010000000000   F   F   F
 10.9138000000000002 10.8013619999999992  4.0990909999999996   F   F   F
  8.1224089999999993 10.9138000000000002  1.4201379999999999   F   F   F
 10.8013619999999992  8.1224089999999993  1.3077010000000000   F   F   F
  1.4201379999999999  1.3077010000000000  8.1224089999999993   F   F   F
  1.3077010000000000  4.0990909999999996 10.8013619999999992   F   F   F
  4.0990909999999996  1.4201379999999999 10.9138000000000002   F   F   F
  9.8370119999999996  2.4680100000000000  2.3349910000000000   F   F   F
  2.5460069999999999  2.3919920000000001  2.5230070000000002   F   F   F
  5.3127685525401249  6.1107386164146469  7.2535501550774235   T   T   T
  6.1111800569571866  6.1107617802853529  8.1102156995124464   T   T   T
  6.9087318441598748  6.1107616559837581  8.9679502416225763   T   T   T
