 C 
 1.0000000000000000
     3.7372647303314452    0.0000000000000000    0.0000000000000000
     0.0000000000000000    3.7372647303314452    0.0000000000000000
     0.0000000000000000    0.0000000000000000    3.7372647303314452
 C  
   8
Cartesian
  0.0000000000000000  0.0000000000000000  0.0000000000000000
  0.0000000000000000  1.8686323651657226  1.8686323651657226
  1.8686323651657226  1.8686323651657226  0.0000000000000000
  1.8686323651657226  0.0000000000000000  1.8686323651657226
  2.8029485477485845  0.9343161825828613  2.8029485477485845
  0.9343161825828613  0.9343161825828613  0.9343161825828613
  0.9343161825828613  2.8029485477485845  2.8029485477485845
  2.8029485477485845  2.8029485477485845  0.9343161825828613
